p cnf 10 45
6 4 -7 0
-9 -6 -10 0
9 10 4 0
8 4 -3 0
-10 9 -1 0
-10 7 2 0
-7 -3 4 0
6 7 1 0
2 6 4 0
7 -3 4 0
9 7 4 0
1 9 7 0
-1 6 9 0
-1 -3 8 0
-2 5 4 0
-3 -9 10 0
6 9 7 0
9 -5 -1 0
-3 5 -1 0
4 9 2 0
1 -5 -9 0
-5 7 8 0
-5 -10 4 0
9 7 -1 0
9 -2 3 0
3 9 8 0
6 9 2 0
6 -5 7 0
-3 7 -10 0
9 -1 6 0
7 -3 6 0
-8 -6 2 0
-4 8 -10 0
-3 2 4 0
-5 -3 -1 0
4 -10 7 0
4 8 -1 0
7 6 8 0
7 6 -8 0
6 7 8 0
4 -1 2 0
2 9 4 0
-3 8 2 0
8 6 7 0
4 9 -5 0
%
0